language ESSENCE' 1.0
letting values be [[5, 2, 6, 0, 9, 8, 7, 0, 3], [0, 7, 9, 6, 3, 5, 2, 1, 8], [8, 0, 3, 0, 7, 2, 0, 0, 9], [0, 0, 0, 0, 0, 3, 0, 9, 5], [3, 4, 1, 0, 5, 9, 0, 0, 6], [0, 0, 0, 8, 0, 6, 0, 3, 2], [0, 5, 0, 3, 2, 1, 9, 0, 7], [0, 3, 0, 0, 8, 7, 6, 5, 0], [9, 8, 0, 5, 0, 4, 3, 2, 0]]